NAME : portcgen-16-14
COMMENT : portcgen N=16, seed=14
TYPE : TSP
DIMENSION : 16
EDGE_WEIGHT_TYPE : EUC_2D
NODE_COORD_SECTION
1 -649857 -273260
2 -368506 450215
3 92337 -151651
4 156297 -114117
5 409029 -156805
6 177645 -179065
7 266049 -67854
8 363050 -64268
9 -55910 -280362
10 -202476 -60792
11 -165375 -74633
12 16405 73175
13 -306354 -82568
14 222961 546118
15 126192 277059
16 113261 106090
